c Result of efficient AIG-to-CNF conversion using package CNF
p cnf 359 1166
-2 149 251 0
-2 -3 251 0
-2 -184 251 0
2 -251 0
2 3 -149 184 0
-3 4 84 0
3 -4 0
3 -84 0
-4 5 58 68 76 0
4 -76 0
4 -68 0
4 -5 0
4 -58 0
-5 6 32 50 0
5 -6 0
5 -50 0
5 -32 0
6 7 -19 0
-6 -7 0
-6 19 0
-7 322 8 0
7 -322 0
7 -8 0
-8 9 15 17 18 0
8 -18 0
8 -9 0
8 -17 0
8 -15 0
-9 319 320 10 12 0
9 -319 0
9 -12 0
9 -10 0
9 -320 0
-10 311 317 318 11 0
10 -11 0
10 -318 0
10 -311 0
10 -317 0
-11 315 316 321 0
11 -315 0
11 -321 0
11 -316 0
-12 307 308 13 14 0
12 -307 0
12 -14 0
12 -13 0
12 -308 0
-13 312 313 314 0
13 -312 0
13 -314 0
13 -313 0
-14 303 304 309 310 0
14 -310 0
14 -309 0
14 -303 0
14 -304 0
-15 301 305 306 16 0
15 -16 0
15 -306 0
15 -301 0
15 -305 0
-16 299 300 0
16 -299 0
16 -300 0
-17 295 302 0
17 -295 0
17 -302 0
-18 296 297 298 0
18 -296 0
18 -298 0
18 -297 0
19 323 -20 0
19 -323 -27 0
-19 -323 27 0
-19 323 20 0
20 324 -21 0
20 -324 -24 0
-20 -324 24 0
-20 324 21 0
21 325 -22 0
21 -325 -23 0
-21 -325 23 0
-21 325 22 0
22 -326 -339 0
22 326 -340 0
-22 326 340 0
-22 -326 339 0
23 -326 -337 0
23 326 -338 0
-23 326 338 0
-23 -326 337 0
24 325 -25 0
24 -325 -26 0
-24 -325 26 0
-24 325 25 0
25 -326 -335 0
25 326 -336 0
-25 326 336 0
-25 -326 335 0
26 -326 -333 0
26 326 -334 0
-26 326 334 0
-26 -326 333 0
27 324 -28 0
27 -324 -31 0
-27 -324 31 0
-27 324 28 0
28 325 -29 0
28 -325 -30 0
-28 -325 30 0
-28 325 29 0
29 -326 -331 0
29 326 -332 0
-29 326 332 0
-29 -326 331 0
30 -326 -329 0
30 326 -330 0
-30 326 330 0
-30 -326 329 0
31 325 326 -328 0
31 325 -326 -327 0
-31 -325 0
-31 -326 327 0
-31 326 328 0
32 -322 8 -48 0
32 322 8 -33 0
-32 -8 0
-32 -322 48 0
-32 322 33 0
33 323 -34 0
33 -323 -41 0
-33 -323 41 0
-33 323 34 0
34 324 -35 0
34 -324 -38 0
-34 -324 38 0
-34 324 35 0
35 325 -36 0
35 -325 -37 0
-35 -325 37 0
-35 325 36 0
36 -326 -342 0
36 326 -343 0
-36 326 343 0
-36 -326 342 0
37 -326 -340 0
37 326 -341 0
-37 326 341 0
-37 -326 340 0
38 325 -39 0
38 -325 -40 0
-38 -325 40 0
-38 325 39 0
39 -326 -338 0
39 326 -339 0
-39 326 339 0
-39 -326 338 0
40 -326 -336 0
40 326 -337 0
-40 326 337 0
-40 -326 336 0
41 324 -42 0
41 -324 -45 0
-41 -324 45 0
-41 324 42 0
42 325 -43 0
42 -325 -44 0
-42 -325 44 0
-42 325 43 0
43 -326 -334 0
43 326 -335 0
-43 326 335 0
-43 -326 334 0
44 -326 -332 0
44 326 -333 0
-44 326 333 0
-44 -326 332 0
45 325 -46 0
45 -325 -47 0
-45 -325 47 0
-45 325 46 0
46 -326 -330 0
46 326 -331 0
-46 326 331 0
-46 -326 330 0
47 -326 -328 0
47 326 -329 0
-47 326 329 0
-47 -326 328 0
48 323 -49 0
-48 -323 0
-48 49 0
49 324 325 326 -327 0
-49 327 0
-49 -326 0
-49 -324 0
-49 -325 0
50 7 -51 0
-50 -7 0
-50 51 0
51 323 -52 0
51 -323 -55 0
-51 -323 55 0
-51 323 52 0
52 324 -53 0
52 -324 -54 0
-52 -324 54 0
-52 324 53 0
53 325 -37 0
53 -325 -39 0
-53 -325 39 0
-53 325 37 0
54 325 -40 0
54 -325 -43 0
-54 -325 43 0
-54 325 40 0
55 324 -56 0
55 -324 -57 0
-55 -324 57 0
-55 324 56 0
56 325 -44 0
56 -325 -46 0
-56 -325 46 0
-56 325 44 0
57 325 -47 0
57 -325 326 -327 0
-57 -325 -326 0
-57 325 47 0
-57 -325 327 0
58 7 -59 0
-58 -7 0
-58 59 0
59 323 -60 0
59 -323 -64 0
-59 -323 64 0
-59 323 60 0
60 324 -61 0
60 -324 -63 0
-60 -324 63 0
-60 324 61 0
61 -325 -22 0
61 325 -62 0
-61 325 62 0
-61 -325 22 0
62 -326 -341 0
62 326 -342 0
-62 326 342 0
-62 -326 341 0
63 325 -23 0
63 -325 -25 0
-63 -325 25 0
-63 325 23 0
64 324 -65 0
64 -324 -66 0
-64 -324 66 0
-64 324 65 0
65 325 -26 0
65 -325 -29 0
-65 -325 29 0
-65 325 26 0
66 325 -30 0
66 -325 -67 0
-66 -325 67 0
-66 325 30 0
67 -326 -327 0
67 326 -328 0
-67 326 328 0
-67 -326 327 0
68 -322 8 -74 0
68 322 8 -69 0
-68 -8 0
-68 -322 74 0
-68 322 69 0
69 323 -70 0
69 -323 -73 0
-69 -323 73 0
-69 323 70 0
70 -324 -21 0
70 324 -71 0
-70 324 71 0
-70 -324 21 0
71 -325 -62 0
71 325 -72 0
-71 325 72 0
-71 -325 62 0
72 -326 -343 0
72 326 -344 0
-72 326 344 0
-72 -326 343 0
73 324 -24 0
73 -324 -28 0
-73 -324 28 0
-73 324 24 0
74 323 -75 0
-74 -323 0
-74 75 0
75 324 -31 0
-75 -324 0
-75 31 0
76 -322 8 -82 0
76 322 8 -77 0
-76 -8 0
-76 -322 82 0
-76 322 77 0
77 323 -78 0
77 -323 -81 0
-77 -323 81 0
-77 323 78 0
78 -324 -53 0
78 324 -79 0
-78 324 79 0
-78 -324 53 0
79 -325 -36 0
79 325 -80 0
-79 325 80 0
-79 -325 36 0
80 -326 -344 0
80 326 -345 0
-80 326 345 0
-80 -326 344 0
81 324 -54 0
81 -324 -56 0
-81 -324 56 0
-81 324 54 0
82 323 -83 0
-82 -323 0
-82 83 0
83 324 -57 0
-83 -324 0
-83 57 0
-84 85 90 94 99 0
84 -99 0
84 -94 0
84 -85 0
84 -90 0
-85 86 88 0
85 -86 0
85 -88 0
86 7 -87 0
-86 -7 0
-86 87 0
87 323 -73 0
87 -323 -75 0
-87 -323 75 0
-87 323 73 0
88 7 -89 0
-88 -7 0
-88 89 0
89 323 -81 0
89 -323 -83 0
-89 -323 83 0
-89 323 81 0
90 7 -91 0
-90 -7 0
-90 91 0
91 323 -92 0
91 -323 -93 0
-91 -323 93 0
-91 323 92 0
92 324 -63 0
92 -324 -65 0
-92 -324 65 0
-92 324 63 0
93 324 -66 0
-93 -324 0
-93 66 0
94 7 -95 0
-94 -7 0
-94 95 0
95 323 -96 0
95 -323 -97 0
-95 -323 97 0
-95 323 96 0
96 324 -38 0
96 -324 -42 0
-96 -324 42 0
-96 324 38 0
97 324 -45 0
97 -324 -98 0
-97 -324 98 0
-97 324 45 0
98 325 326 -327 0
-98 327 0
-98 -326 0
-98 -325 0
-99 100 106 112 118 0
99 -118 0
99 -112 0
99 -100 0
99 -106 0
100 -322 8 -105 0
100 322 8 -101 0
-100 -8 0
-100 -322 105 0
-100 322 101 0
101 -323 -96 0
101 323 -102 0
-101 323 102 0
-101 -323 96 0
102 -324 -35 0
102 324 -103 0
-102 324 103 0
-102 -324 35 0
103 -325 -80 0
103 325 -104 0
-103 325 104 0
-103 -325 80 0
104 -326 -346 0
104 326 -347 0
-104 326 347 0
-104 -326 346 0
105 323 -97 0
-105 -323 0
-105 97 0
106 -322 8 -111 0
106 322 8 -107 0
-106 -8 0
-106 -322 111 0
-106 322 107 0
107 -323 -52 0
107 323 -108 0
-107 323 108 0
-107 -323 52 0
108 -324 -79 0
108 324 -109 0
-108 324 109 0
-108 -324 79 0
109 -325 -104 0
109 325 -110 0
-109 325 110 0
-109 -325 104 0
110 -326 -348 0
110 326 -349 0
-110 326 349 0
-110 -326 348 0
111 323 -55 0
-111 -323 0
-111 55 0
112 -322 8 -117 0
112 322 8 -113 0
-112 -8 0
-112 -322 117 0
-112 322 113 0
113 -323 -92 0
113 323 -114 0
-113 323 114 0
-113 -323 92 0
114 -324 -61 0
114 324 -115 0
-114 324 115 0
-114 -324 61 0
115 -325 -72 0
115 325 -116 0
-115 325 116 0
-115 -325 72 0
116 -326 -345 0
116 326 -346 0
-116 326 346 0
-116 -326 345 0
117 323 -93 0
-117 -323 0
-117 93 0
-118 119 140 144 0
118 -119 0
118 -144 0
118 -140 0
-119 120 126 0
119 -120 0
119 -126 0
120 -322 8 -125 0
120 322 8 -121 0
-120 -8 0
-120 -322 125 0
-120 322 121 0
-121 -323 34 0
-121 323 122 0
121 -323 -34 0
121 323 -122 0
-122 324 123 0
-122 -324 103 0
122 -324 -103 0
122 324 -123 0
123 -325 -110 0
123 325 -124 0
-123 325 124 0
-123 -325 110 0
124 -326 -350 0
124 326 -351 0
-124 326 351 0
-124 -326 350 0
125 323 -41 0
125 -323 -49 0
-125 -323 49 0
-125 323 41 0
-126 127 135 0
126 -127 0
126 -135 0
127 322 8 -128 0
127 -322 8 -87 0
-127 -8 0
-127 322 128 0
-127 -322 87 0
-128 -323 70 0
-128 323 129 0
128 -323 -70 0
128 323 -129 0
-129 324 132 0
-129 -324 130 0
129 -324 -130 0
129 324 -132 0
130 -325 -116 0
130 325 -131 0
-130 325 131 0
-130 -325 116 0
131 -326 -347 0
131 326 -348 0
-131 326 348 0
-131 -326 347 0
132 325 -133 0
132 -325 -134 0
-132 -325 134 0
-132 325 133 0
133 -326 -351 0
133 326 -352 0
-133 326 352 0
-133 -326 351 0
134 -326 -349 0
134 326 -350 0
-134 326 350 0
-134 -326 349 0
135 322 8 -136 0
135 -322 8 -89 0
-135 -8 0
-135 322 136 0
-135 -322 89 0
-136 -323 78 0
-136 323 137 0
136 -323 -78 0
136 323 -137 0
-137 324 138 0
-137 -324 109 0
137 -324 -109 0
137 324 -138 0
138 -325 -124 0
138 325 -139 0
-138 325 139 0
-138 -325 124 0
139 -326 -352 0
139 326 -353 0
-139 326 353 0
-139 -326 352 0
140 -322 8 -143 0
140 322 8 -141 0
-140 -8 0
-140 -322 143 0
-140 322 141 0
141 -323 -20 0
141 323 -142 0
-141 323 142 0
-141 -323 20 0
142 -324 -71 0
142 324 -130 0
-142 324 130 0
-142 -324 71 0
143 323 -27 0
-143 -323 0
-143 27 0
144 -322 8 -148 0
144 322 8 -145 0
-144 -8 0
-144 -322 148 0
-144 322 145 0
145 -323 -60 0
145 323 -146 0
-145 323 146 0
-145 -323 60 0
146 -324 -115 0
146 324 -147 0
-146 324 147 0
-146 -324 115 0
147 -325 -131 0
147 325 -134 0
-147 325 134 0
-147 -325 131 0
148 323 -64 0
-148 -323 0
-148 64 0
149 -323 150 157 -162 0
-149 162 0
-149 323 0
-149 -150 0
-149 -157 0
-150 151 152 155 156 0
150 -152 0
150 -156 0
150 -151 0
150 -155 0
151 7 -125 0
-151 -7 0
-151 125 0
-152 153 154 0
152 -153 0
152 -154 0
153 7 -105 0
-153 -7 0
-153 105 0
154 7 -143 0
-154 -7 0
-154 143 0
155 7 -111 0
-155 -7 0
-155 111 0
156 7 -148 0
-156 -7 0
-156 148 0
157 322 8 -158 0
157 -322 8 -91 0
-157 -8 0
-157 322 158 0
-157 -322 91 0
-158 -323 114 0
-158 323 159 0
158 -323 -114 0
158 323 -159 0
-159 324 160 0
-159 -324 147 0
159 -324 -147 0
159 324 -160 0
160 -325 -133 0
160 325 -161 0
-160 325 161 0
-160 -325 133 0
161 -326 -353 0
161 326 -354 0
-161 326 354 0
-161 -326 353 0
162 163 168 173 -178 0
-162 178 0
-162 -173 0
-162 -163 0
-162 -168 0
163 322 8 -164 0
163 -322 8 -95 0
-163 -8 0
-163 322 164 0
-163 -322 95 0
-164 -323 102 0
-164 323 165 0
164 -323 -102 0
164 323 -165 0
-165 -324 123 0
-165 324 166 0
165 -324 -123 0
165 324 -166 0
-166 325 167 0
-166 -325 139 0
166 -325 -139 0
166 325 -167 0
167 -326 -354 0
167 326 -355 0
-167 326 355 0
-167 -326 354 0
168 322 8 -169 0
168 -322 8 -19 0
-168 -8 0
-168 322 169 0
-168 -322 19 0
-169 -323 142 0
-169 323 170 0
169 -323 -142 0
169 323 -170 0
-170 -324 132 0
-170 324 171 0
170 -324 -132 0
170 324 -171 0
-171 325 172 0
-171 -325 161 0
171 -325 -161 0
171 325 -172 0
172 -326 -355 0
172 326 -356 0
-172 326 356 0
-172 -326 355 0
173 322 8 -174 0
173 -322 8 -51 0
-173 -8 0
-173 322 174 0
-173 -322 51 0
-174 -323 108 0
-174 323 175 0
174 -323 -108 0
174 323 -175 0
-175 -324 138 0
-175 324 176 0
175 -324 -138 0
175 324 -176 0
-176 325 177 0
-176 -325 167 0
176 -325 -167 0
176 325 -177 0
177 -326 -356 0
177 326 -357 0
-177 326 357 0
-177 -326 356 0
178 -323 179 0
178 -322 -179 0
-178 323 179 0
-178 322 -179 0
179 322 8 -180 0
179 -322 8 -59 0
-179 -8 0
-179 322 180 0
-179 -322 59 0
-180 -323 146 0
-180 323 181 0
180 -323 -146 0
180 323 -181 0
-181 -324 160 0
-181 324 182 0
181 -324 -160 0
181 324 -182 0
-182 325 183 0
-182 -325 172 0
182 -325 -172 0
182 325 -183 0
183 -326 -357 0
183 326 -358 0
-183 326 358 0
-183 -326 357 0
184 -185 201 233 244 0
-184 -244 0
-184 185 0
-184 -233 0
-184 -201 0
185 -186 190 0
185 190 197 -198 0
-185 -190 0
-185 186 198 0
-185 186 -197 0
186 -157 187 0
186 157 -187 0
-186 157 187 0
-186 -157 -187 0
-187 163 188 0
187 -163 0
187 -188 0
-188 168 189 0
188 -168 0
188 -189 0
-189 173 179 0
189 -173 0
189 -179 0
-190 191 186 0
190 -191 0
190 -186 0
191 -112 192 0
191 112 -192 0
-191 112 192 0
-191 -112 -192 0
-192 100 193 0
192 -100 0
192 -193 0
-193 140 194 0
193 -140 0
193 -194 0
-194 106 195 0
194 -106 0
194 -195 0
-195 119 144 196 0
195 -119 0
195 -144 0
195 -196 0
-196 157 187 0
196 -157 0
196 -187 0
197 -163 188 0
197 163 -188 0
-197 163 188 0
-197 -163 -188 0
198 -178 199 200 0
-198 178 0
-198 -200 0
-198 -199 0
199 -168 189 0
199 168 -189 0
-199 168 189 0
-199 -168 -189 0
200 173 -179 0
200 -173 179 0
-200 -173 -179 0
-200 173 179 0
-201 202 214 221 222 0
201 -222 0
201 -221 0
201 -202 0
201 -214 0
202 -151 203 0
202 151 -203 0
-202 151 203 0
-202 -151 -203 0
-203 86 204 0
203 -86 0
203 -204 0
-204 88 205 0
204 -88 0
204 -205 0
-205 90 206 0
205 -90 0
205 -206 0
-206 94 207 0
206 -94 0
206 -207 0
-207 6 208 0
207 -6 0
207 -208 0
-208 50 209 0
208 -50 0
208 -209 0
-209 58 210 0
209 -58 0
209 -210 0
-210 32 211 0
210 -32 0
210 -211 0
-211 68 212 0
211 -68 0
211 -212 0
-212 76 213 0
212 -76 0
212 -213 0
-213 112 192 0
213 -112 0
213 -192 0
214 -215 216 0
214 215 -216 0
-214 215 216 0
-214 -215 -216 0
215 7 -117 0
-215 -7 0
-215 117 0
-216 153 217 0
216 -153 0
216 -217 0
-217 154 218 0
217 -154 0
217 -218 0
-218 155 219 0
218 -155 0
218 -219 0
-219 156 220 0
219 -156 0
219 -220 0
-220 151 203 0
220 -151 0
220 -203 0
221 -153 217 0
221 153 -217 0
-221 153 217 0
-221 -153 -217 0
-222 223 226 227 228 0
222 -228 0
222 -227 0
222 -223 0
222 -226 0
-223 224 225 0
223 -224 0
223 -225 0
-224 -32 -58 -211 0
-224 32 58 211 0
224 -32 211 0
224 58 -211 0
224 32 -58 0
-225 19 50 209 0
-225 -7 50 209 0
-225 7 -19 -50 -209 0
225 -7 -209 0
225 7 -19 50 0
225 19 -209 0
225 -50 209 0
226 -88 205 0
226 88 -205 0
-226 88 205 0
-226 -88 -205 0
227 -94 207 0
227 94 -207 0
-227 94 207 0
-227 -94 -207 0
-228 100 193 229 232 0
-228 -100 -193 229 232 0
228 -232 0
228 100 -193 0
228 -229 0
228 -100 193 0
-229 106 195 0
-229 -106 -195 -230 -231 0
229 -106 231 0
229 106 -195 0
229 -106 195 0
229 -195 230 0
230 -120 -196 0
-230 120 0
-230 196 0
231 -127 -135 -144 0
-231 127 0
-231 135 0
-231 144 0
-232 76 -140 -194 213 0
-232 76 140 194 213 0
-232 -76 140 194 -213 0
-232 -76 -140 -194 -213 0
232 -76 213 0
232 76 -213 0
232 -140 194 0
232 140 -194 0
-233 234 241 242 243 0
233 -243 0
233 -242 0
233 -234 0
233 -241 0
-234 235 236 0
-234 -235 -236 0
234 -235 236 0
234 235 -236 0
235 7 -48 0
-235 -7 0
-235 48 0
-236 237 238 0
236 -237 0
236 -238 0
237 7 -74 0
-237 -7 0
-237 74 0
-238 239 240 0
238 -239 0
238 -240 0
-239 215 216 0
239 -215 0
239 -216 0
240 7 -82 0
-240 -7 0
-240 82 0
241 -156 220 0
241 156 -220 0
-241 156 220 0
-241 -156 -220 0
242 -155 219 0
242 155 -219 0
-242 155 219 0
-242 -155 -219 0
243 -154 218 0
243 154 -218 0
-243 154 218 0
-243 -154 -218 0
-244 245 246 247 0
244 -247 0
244 -246 0
244 -245 0
245 239 -240 0
245 -239 240 0
-245 -239 -240 0
-245 239 240 0
246 -237 238 0
246 237 -238 0
-246 237 238 0
-246 -237 -238 0
-247 248 249 250 0
247 -248 0
247 -250 0
247 -249 0
248 -86 204 0
248 86 -204 0
-248 86 204 0
-248 -86 -204 0
249 -68 212 0
249 68 -212 0
-249 68 212 0
-249 -68 -212 0
250 -90 206 0
250 90 -206 0
-250 90 206 0
-250 -90 -206 0
-251 252 269 -291 0
-251 252 269 287 0
251 -252 0
251 -269 0
251 -287 291 0
252 -157 -256 261 0
252 -253 -256 261 0
-252 256 0
-252 -261 0
-252 157 253 0
253 163 -254 0
-253 -163 0
-253 254 0
254 168 173 -255 0
254 168 -173 -178 0
-254 -168 0
-254 -173 178 0
-254 173 255 0
255 -325 179 0
255 -324 -179 0
-255 325 179 0
-255 324 -179 0
256 -325 4 257 0
-256 325 0
-256 -4 0
-256 -257 0
-257 84 157 235 258 0
257 -258 0
257 -235 0
257 -84 0
257 -157 0
-258 237 259 0
258 -237 0
258 -259 0
-259 240 260 0
259 -240 0
259 -260 0
-260 150 215 0
260 -150 0
260 -215 0
261 234 -262 266 267 0
-261 -267 0
-261 -234 0
-261 -266 0
-261 262 0
262 190 247 263 -264 0
-262 -263 0
-262 264 0
-262 -190 0
-262 -247 0
-263 202 241 0
263 -202 0
263 -241 0
-264 186 -197 0
-264 186 265 0
-264 186 -199 0
264 -186 0
264 197 199 -265 0
265 -178 -200 0
265 200 -255 0
-265 178 -200 0
-265 200 255 0
-266 214 245 0
266 -214 0
266 -245 0
-267 222 246 268 0
267 -222 0
267 -246 0
267 -268 0
-268 221 242 243 0
268 -221 0
268 -243 0
268 -242 0
269 -157 -276 277 0
269 -270 -276 277 0
-269 276 0
-269 -277 0
-269 157 270 0
270 163 -271 0
-270 -163 0
-270 271 0
271 168 -272 0
271 -168 173 -275 0
-271 -168 -173 0
-271 168 272 0
-271 -168 275 0
272 173 -273 0
272 -173 -274 0
-272 -173 274 0
-272 173 273 0
273 -326 179 0
273 -325 -179 0
-273 326 179 0
-273 325 -179 0
274 -324 179 0
274 -323 -179 0
-274 324 179 0
-274 323 -179 0
275 -322 179 0
-275 322 0
-275 -179 0
276 -326 4 257 0
-276 326 0
-276 -4 0
-276 -257 0
277 233 -278 283 284 0
-277 -284 0
-277 -233 0
-277 -283 0
-277 278 0
278 -186 221 279 0
278 221 279 -280 0
-278 -279 0
-278 -221 0
-278 186 280 0
-279 191 227 228 249 0
279 -191 0
279 -249 0
279 -228 0
279 -227 0
280 197 199 -282 0
280 197 -199 -281 0
-280 -197 0
-280 -199 281 0
-280 199 282 0
281 173 -275 0
-281 -173 0
-281 275 0
282 200 -273 0
282 -200 -274 0
-282 -200 274 0
-282 200 273 0
-283 246 266 0
283 -246 0
283 -266 0
-284 186 202 285 286 0
284 -186 0
284 -286 0
284 -285 0
284 -202 0
-285 224 225 250 0
285 -224 0
285 -225 0
285 -250 0
-286 226 248 0
286 -226 0
286 -248 0
287 3 157 -288 -290 0
-287 290 0
-287 -3 0
-287 288 0
-287 -157 0
288 163 -289 0
-288 -163 0
-288 289 0
289 168 -173 -275 0
289 168 173 -274 0
-289 -168 0
-289 -173 275 0
-289 173 274 0
290 -324 259 0
-290 324 0
-290 -259 0
291 285 286 292 -293 0
-291 293 0
-291 -285 0
-291 -292 0
-291 -286 0
-292 234 263 268 283 0
292 -283 0
292 -234 0
292 -268 0
292 -263 0
293 186 197 279 -294 0
-293 -186 0
-293 294 0
-293 -279 0
-293 -197 0
294 199 -200 -275 0
294 199 200 -274 0
-294 -199 0
-294 -200 275 0
-294 200 274 0
-359 0
2 0

